NAME : portcgen-29-3
COMMENT : portcgen N=29, seed=3
TYPE : TSP
DIMENSION : 29
EDGE_WEIGHT_TYPE : EUC_2D
NODE_COORD_SECTION
1 239439 110273
2 -82528 -197341
3 -122659 279405
4 -98501 304468
5 -193705 17759
6 95709 -228878
7 -24123 -250662
8 169660 193664
9 -158304 -252566
10 66878 -170673
11 -159399 -26850
12 149296 275558
13 61630 -22800
14 -262461 -291080
15 -50121 108860
16 101321 65262
17 473115 325223
18 20506 56340
19 112394 98948
20 -328212 -40540
21 -162311 226471
22 -79783 101681
23 -9479 -77656
24 8322 76535
25 45275 326617
26 216934 -201580
27 198022 -89048
28 155784 -105813
29 33323 326388
